
Gurobi 6.0.4 (win64) logging started 06/20/15 12:11:25

Read LP format model from file C:\MT\repository\VRPTWMS\instances\mip\fuel\N8-C_DV100-C_SV30_F6_9_No_1.lp
Reading time = 0.01 seconds
(null): 417 rows, 200 columns, 1659 nonzeros
Optimize a model with 417 rows, 200 columns and 1659 nonzeros
Model has 512 quadratic constraints
Coefficient statistics:
  Matrix range    [1e+00, 1e+06]
  Objective range [3e+04, 1e+07]
  Bounds range    [1e+00, 1e+06]
  RHS range       [1e+00, 1e+06]
Presolve removed 65 rows and 41 columns
Presolve time: 0.19s
Presolved: 884 rows, 424 columns, 4834 nonzeros
Variable types: 265 continuous, 159 integer (125 binary)
Found heuristic solution: objective 8.482100e+07

Root relaxation: objective 1.763088e+07, 75 iterations, 0.00 seconds

    Nodes    |    Current Node    |     Objective Bounds      |     Work
 Expl Unexpl |  Obj  Depth IntInf | Incumbent    BestBd   Gap | It/Node Time

     0     0 1.7631e+07    0   31 8.4821e+07 1.7631e+07  79.2%     -    0s
H    0     0                    6.383400e+07 1.7631e+07  72.4%     -    0s
     0     0 2.5142e+07    0   34 6.3834e+07 2.5142e+07  60.6%     -    0s
H    0     0                    5.390240e+07 2.5142e+07  53.4%     -    0s
     0     0 3.2489e+07    0    7 5.3902e+07 3.2489e+07  39.7%     -    0s
H    0     0                    3.248950e+07 3.2489e+07  0.00%     -    0s

Cutting planes:
  Learned: 1
  Gomory: 1
  Cover: 1
  Implied bound: 6
  Clique: 4
  MIR: 1
  GUB cover: 6

Explored 0 nodes (176 simplex iterations) in 0.24 seconds
Thread count was 2 (of 4 available processors)

Optimal solution found (tolerance 1.00e-04)
Best objective 3.248950000000e+07, best bound 3.248950000000e+07, gap 0.0%
k_c1	979798.0
k_c2	1000000.0
k_c3	960000.0
k_c4	999798.0
k_c5	980000.0
k_c6	1000000.0
k_c7	940000.0
k_c8	50000.0
k_dN	-0.0
o_1	0.0
o_2	0.0
o_3	0.0
o_4	0.0
o_5	0.0
o_6	0.0
o_7	0.0
o_8	0.0
p_1	0.0
p_2	0.0
p_3	0.0
p_4	0.0
p_5	0.0
p_6	0.0
p_7	0.0
p_8	0.0
phi_c1	7835.0
phi_c2	41342.0
phi_c3	39228.0
phi_c4	34524.0
phi_c5	30352.0
phi_c6	33108.0
phi_c7	20612.0
phi_c8	18919.0
phi_d0	60000.0
phi_dN	-0.0
tauD_c1	756175.0
tauD_c2	250000.0
tauD_c3	337900.0
tauD_c4	250000.0
tauD_c5	700000.0
tauD_c6	450000.0
tauD_c7	776450.0
tauD_c8	782725.0
tauD_d0	-0.0
tauD_dN	1000000.0
tauS_c1	26550.0
tauS_c2	57425.0
tauS_c3	62500.0
tauS_c4	824800.0
tauS_c5	821375.0
tauS_c6	823800.0
tauS_c7	37300.0
tauS_c8	0.0
tauS_d0	-0.0
tauS_dN	1000000.0
x_c1_dN	1.0
x_c2_c3	1.0
x_c3_c7	1.0
x_c4_c1	1.0
x_c5_c8	1.0
x_c6_c5	1.0
x_c7_dN	1.0
x_c8_dN	1.0
x_d0_c2	1.0
x_d0_c4	1.0
x_d0_c6	1.0
